2000 2190
2 3
1 4
1 5
2 6
3 7 8
4 9
5 10
5 11
6 12
7 13
8 14
9 15
10
11 16
12 17
14 18
15 19
16 20 21
17 22
18 23
18 24 25
19 26
20 27 28
21 29 30
21
22 31
23 32 33
23 34
24 35 36
24 37 38
26 39
27
27 40 41
28 42
29 43 44 45
29
30 46 47
30 48
31 49
33 50 51 52
33
34 53
35 54
35 55 56
35 57
37 58 59
37
38 60
39 61
40 62 63
40
40 64
42 65
43 66
44
44 67 68
45 69
46
46 60
48 59
49 70
50 71 72 73
50 74
52 75 76
53 75 77
54 78
56 79 80
56
57 81
61 82
62 83 84 85
62 86 87 88
62 89 90
63 91
64 65
64 92
65 93
66 94 95
67
67 96 97
69 98
70 99
71 100 101 102
71 103 104
71 105
72 105 106
72 107
72 108 109
73
73
74 110
76 111 112
77 113
78 114
78
80 115 116
80
81 117
82 118
83 119 120
83 121 122
83 123 124
84 125
84
85 86 126 127
86 128
87
88 129 130
88
91 130
92 131
92 132
93 133 134
94 135 136
96 137
96
98
99 138
100 139 140
100 141 142
101 143
101 144
102 141 145 146
102 147
103 143
105 145
105 148
106 149
108 150 151 152
108 110 153
111
112 154
113 155 156
113 157
114 158 159
114 160
115 161
118 162
119 163 164
119 165
120 123 166
120
121 125 167
122 168
123 126
123 169 170
124
127 171 172
128
129 173
129 174
129 175
130 176
132
133 177
133 178
134
135 179
135
136 180
137 181
138 182
139 183 184
139 185 186
140 187
141 188
143
144 189
146 190 191
146
148 192 193
148 194
150 195 196 197
151 198
152 199
153 200
155 201
156 202
158 203
160 197 204 205 206
161 207
162 208
163
163 209
164 210 211
164
165 189 212
166 213 214
168 187
169 215
169 216
171 217 218
171 219
172 220
173 221
173 222
173 180 223
174 224 225
175 202
176 226
177 227
178 199
179 228 229
180 230
180 231 232
180 233 234
181 235 236 237
182 238
184 239 240
185
185 241 242
187 243 244
188 215 245 246
188 247
190 213
191 248 249
192 250 251
192 250
193 252
194 248 253
195 254
196 255
197 256
198 251
198 252
200
201 229
203 257
203 227
204 257
205
205 235
206 255 258
206 259 260
207 232
207 261
207 262
208 263 264
209 265 266
209 267
211
211 247 268
212
212
213 269
213 270
214 242 271
216 220
216 272
217 218
217 224
219 225 273 274
220 275 276
221 277
222 233
223
228 230
233 278
234 279
234 280 281
236 279 282
237
238 283
238 284 285
239 286
239 287 288
240
242
245 289 290
246 271 291 292
247 270 293
249
252 294 295
252 275
253 274 296
253 297
254 298
258 299 300
259 261
260 301
260 302 303
261 304 305
263 306
264
264 307
265 292 308
266 309
266 310 311
269 312
269 313
270 314 315 316
270 286
271
273 317 318
273
275 319
276 320
277 321
278 322
278 323
280 324
281 325
281 326
282 327
282 328
283 329
285 330 331
286 332
287 333
288 334 335
288 336
289 337
290 316
291 338
291 339
291 313
294 340
294 341
296 342
297 342 343
298 344
299 324
300 345
301 322
302 346
303
304 347
305 348
306 349
307 350
307 351
308 352
309
310 353 354
310 355
311 356
312 357
314 358 359
315 360
317 361 362
318 363
319 320 364
320 365
321 366
323 367
325 347 368 369
327 346 370
328 371
329 372
330 373
331 374
332 375
334 376
334 377
335 378 379
336 380
337 381 382 383
338 384 385
338
339 386
340 367 387 388
340 388 389
341 390
342 391
343 392
344 393
345 361 394
346 395 396 397
346 398 399
347
348 400 401
349 402
350 403 404
351 405
352 385
353 406
354 407
355 408
355 409
356
357 391
357 410
357 411
358 412 413
358 375
360 414
361 396 415
361 362 416
362 417
363 418
364 381
365 419 420
366 421
367
368 422
368 387 423
368 424 425
369 426
369 427
371 428 429
371 429 430
372 431
373 432
373 433 434
374 435
376 436
377 437
378 438
379 439
382 440
383 441
384 442
384 436
386 443
387 444
388 445 446 447
389 448
390
392
392
393
395 426 449
396 450 451
397 452 453
397 454
398 422 455
399 456 457
400 458 459
400 401
401 460
402 461
403 433
404 432
404 462
405 463 464
406 413 465
407 466 467
408 468
409 469
410 470
411 471 472
412 473
414 474 475
415
416 476
416 477
416 478
417
422 479 480
423
423 453
424 481 482
424 451 483
425 479 484
426 459 485
427 486
427
428 487 488
428 455
430 489
431 490
434 491 492
435 493 494
435 495
436 496 497 498
437 499
437 500
438 501 502
439 503
440 504
441 505
441 506
442 507
443 508
443 509
445 510
446 511 512
447 504 513
449 454
449 514
452 515 516
452
453 517
454 518
455 519
456
458 520
458 521
460 522
461 523
462 524 525
462 526
463 527
463 528
464 529 530
465 531 532 533
465 534
465 500
466 532 535
467 498
468 535 536
468 537 538
469 539
470 478
471 540 541
472 542
473 543
474 544
475 542
476 545 546
477 547
477 548
478
480 549
481 550
481 551
483
484 552
485
487 553 554
488 555
489 556
490 557
491 558
491 559
492 529 560
493 561
494 562
495 526 562 563
495 564
496 565
496 499 566
496
497
499 501 567
501 568
502 569
502 570
503 571
505
505
506 509
507
508 572 573
510 574
510 574
511 575
512 550
514 576
515 548
516 577
518 578
520 579
520 580 581
521 582
522 583 584
523 585
524 586
525 587
526 588
527 589
528 529 587
529 590 591
530 592
531 593
532 593
535 594
536 595
537 596 597
538
539 598
544 599
544 600
545 546
547
549 601 602
551 603
552 604
553 605
554 606
554 607
555 608
556 609 610
556 611
557 612
558 613
559 562
560 614
561 613
563 592
563 614
564 590
565 566
567 615 616
568 617 618
569 598
569 619
571 596 618
572 620
573 621
576 622
576 607
577 623
578 624
579 625
580 626
581 602
582 622
583 627 628
583 629 630
584 631 632
585 633
586 589
588 591
594 634 635
594 636
595
595 598
597
599 637
600 638
601 608
603 639
604 639
605 640
606 641
609
609 642
610 643 644
610 645
611 646
611 647
612 648
615 649
615 650
616 651
620 652
621 653
623 624 654 655
625 656 657
626 658
628 643 659
629 642 660
629 661
630
631 662
632
633 663
634 664 665
635 666
636 667
637 668
638 668 669
639 670
639 671
640 672
640 673
641
642
643 674
644 675
646
648 676
649 677
649 678
650
651 679
652 653
653 680
654 681
655 682
656 683 684
657 685
660 686 687
661
663 688
664 689
665 690 691
667 692
669 693
670 694 695
671 696
672
672 697
673
674 697
674
676 698
677 699
678 700
678 701
679 702
680 703 704
681 705
681 706
682 707
684 686
688 708
689 709 710
690 711
691 712
692 713
693 714
693 715 716
694 717
695 718 719
696 720 721
698 722
699 723
699 724
700 725
701 726
702 727
703 728 729
704 730
704
705 731
706 732
706
707 733
707 734
708 735
709 736
710
711 737 738
712 739 740
713
714 741 742
714 743
715
717 744
718
720 745 746
721 747
722 748
723 749
725 750
725 751
726 752
726 753
728 754
728 754 755
729 756 757
731 758
733
733 759
734 760
735 761
736 762 763
737 764
738 765
739 766
740 764
741 742
742 767
743 768
743 769
744 770
746 771
747 772 773
748 774
749 775 776
749 777 778
750 753
751 779
752 780
755 781
756 782
757 783 784
758 785
759 786
760 787 788
760
761 789
762 790
762 791
763 792
763 793
765 794
766 795
767
768 796 797
769 798
769 799
770 800
771
772 801
772 802 803
774 804
775 793
776 805
777 806
778 790 807
779 808
780 809
782 810
782 811
783 812
784 813
785 814
787 815 816
788 817
788 818
789 819
791 820
792 821 822
793 822
794 823
795 824
796 825 826
797 827 828
798 829 830
799 831 832 833 834
800 835 836
801
801
802 837
803 838
804 839
805 840
806 840
806 807
808 841
809 842
810 843 844
810 843
811 845
811 846
812 847
812 848
813 849
813 850
813 851
813 852
814 853
814 854
817 855 856
818 857
819 858
820 821
823 859
824 860
825 826 861 862
825 863
827 864
828 864 865
829
830 852 866
831 867 868
832 869 870
833 871
834 848 872
835 873 874 875
836 874 876
837 877 878
837
838 879
839 880
841 881
842 882
843 883
843
844 884 885
845 846 886 887
846 888 889
848 890
849 891
849 891 892
850 893
850 894 895
851 896
852 897
853 898 899
853 854 900 901
853 902
854 900
855
855 903 904
857
858 905
859 906
860 907
861 885 908
863 909 910
863 883
864 911 912
864 913
865 914
865 912 915 916
866 917
867 868
868 918 919 920
869 921
870 922
870
871 923
872 924
873 925
873 926
874 876 927
874 928
875 926 929
878
878 930
880 931
881 932
882 933
883 914 934
884 935 936
884 937
886 938 939
886 889
887 940
888 908 941 942
889 943
889 944 945 946
890 947
892 948 949
892 950
892 951 952
893 953
894 954
896 955 956 957
897 958 959
898 960
899 902
900 961
901 962
902 963
904 964 965
905 966
906 967 968 969
907 970
908 971 972
909 973
909 974 975 976
910 977 978 979
911 980
911 981 982
913
914 943 983 984
914 985 986
915 941
916 981
916 984
916 987 988
917 989
918 990
918 991
919 992
920 993
920 994
921 995
922 978
923 996 997
923 998
923 999
924 1000
924 1001
925 1002
927 1003
928 1004
929 1005
930 1006 1007
930 1008
931 1009
932 1010
932 1011
932 1012 1013
933 1014
934 1015
934 1015
935 1016 1017
936 1018 1019
936 1018
936 1019 1020
937 1021
937 954
937 998 1022
938 1023
939 944
939 1024 1025
941 986
941 945 1026 1027
942 1028
942 983 1027 1029
946 1030
946 1031
947
948 1032
949 1033 1034 1035
950 999 1036
951 1037
952 1038 1039
953 998
955 1040
955 1041
956 979 995
957 992 1042
958 1043 1044
959
960 1045
961 1046
962 1047
963 1048
964 1049
964 1050 1051 1052
965 1053
966 1054
967 1055
968 1056 1057
969 1058 1059 1060
969 1059 1061
970 1062
971 972
973 1063 1064
973 1065
974 975
974 976 1066
976 1066
977 1067
979 1068 1069
980
982 1070
982 1030
984 1031 1071
984 986 1072 1073
985 1074 1075 1076
986 1077
987 1025 1078
988 1026
990 1079
991 1080 1081
991 1082
991 1081 1083
992 1079 1084 1085
993 1086
994 1087 1088
994 1043 1089 1090
996 1091
997 1092
999 1093
1000 1039
1000 1094
1002 1095
1003 1096
1004 1097
1005 1098
1006 1099
1007
1007 1100 1101
1007 1053
1008 1052
1009 1102 1103
1010 1104
1011 1105
1011 1106 1107
1012 1108 1109
1012 1013 1110
1012 1109 1111
1013
1014 1112
1016 1113
1016 1114 1115
1017 1116
1019 1020
1021 1117 1118
1022
1022
1024 1119
1026 1073
1027 1120
1027 1071 1121 1122
1028 1123
1028 1113 1124
1028 1125
1029 1126
1030 1127
1032 1036
1033 1128
1033 1035 1129
1034 1130
1035 1131 1132
1036 1133
1036 1134
1037 1135
1038
1038 1136 1137
1039 1135
1039
1040 1138
1041 1139
1042 1140 1141
1044 1142
1045 1143
1046 1144
1047 1145
1048 1146
1049 1147
1051 1148 1149 1150
1051 1151
1054 1152
1054 1153
1055 1154
1056 1155 1156
1057 1157 1158
1057 1159
1058 1160 1161
1058 1060 1161
1059 1111
1060 1110
1062 1162
1063 1075 1163
1064 1164
1064 1165
1065 1117
1067 1116
1067 1166
1070 1167
1072 1168
1073 1169
1073 1170
1074 1171 1172
1075
1076 1126 1168
1077 1125
1078 1173
1080 1174 1175
1081 1176
1082 1177
1083 1178
1083 1179
1084 1175 1180 1181
1085 1182
1086 1089
1088 1183 1184
1088
1091 1182 1185
1092 1186
1093
1093
1094 1187
1095 1188
1096 1189
1097 1190
1098 1191
1099 1149
1100
1100 1147
1100 1192
1101 1192
1102 1193
1103 1194
1104 1195
1105 1196 1197
1105 1198 1199 1200
1106 1200
1106 1201
1107 1202
1108 1203 1204
1108 1109
1112 1184 1187
1113 1205
1114 1206
1115 1207
1118 1208
1119 1209
1120 1125 1169
1121 1168 1210 1211
1122 1212
1123 1213
1123 1214
1127 1215
1128 1180
1128 1133
1129 1180 1216 1217
1130 1218
1131 1216
1132 1219 1220
1133 1174 1176
1133 1221
1134 1138 1222
1136 1223 1224
1136 1162
1138 1225 1226
1139 1227 1228
1142 1162
1143 1229
1144 1230
1145 1231
1146 1232
1150 1151 1215
1152 1233
1153 1234
1154 1235
1155
1155 1198 1236
1156 1197 1237 1238
1156
1156 1157 1201 1239
1158 1200 1240 1241
1159 1241
1160 1242 1243
1160 1244
1163
1164 1245
1165 1246
1166 1247
1167
1169 1248
1169 1249 1250
1170 1250
1171 1251 1252
1172 1253 1254
1173 1192
1176 1178 1255
1176 1256
1177 1257
1179 1255 1258
1179 1258
1181 1259
1182 1260
1183
1183
1185
1185
1186 1261
1186 1262
1188 1263 1264
1189 1265
1190 1266
1191 1267
1193 1268
1194 1269 1270
1195 1271
1197 1237
1198 1236 1272
1198
1200
1201
1201 1202 1273
1203 1274 1275
1203 1275 1276
1204 1276
1206 1277
1207 1278
1208 1279
1210 1280
1211 1281
1211 1212
1213 1282
1213 1283 1284
1214 1285 1286
1214 1287
1216 1219 1288 1289
1217 1290 1291
1218
1219 1220 1288
1221 1292
1222 1292 1293
1227 1294
1228 1295 1296
1229 1297
1229 1298
1230 1299
1231 1300
1232 1301
1233 1302 1303
1234 1304
1234 1305
1235 1306 1307
1237
1241
1242 1308 1309
1242 1243 1309
1243 1244
1245
1246 1310 1311 1312
1247 1313
1248 1314
1249 1315
1251
1252 1316
1252 1312
1253 1317
1253 1318
1254 1319
1255 1258 1320 1321
1255 1322 1323
1256 1324 1325
1256 1326
1259 1260 1327
1260 1328 1329
1261 1330
1262 1331 1332 1333
1262 1334 1335
1263 1336
1264 1337
1265 1338
1266 1339
1267 1340
1268 1341
1268 1342
1269 1342
1270 1343
1271 1344
1271 1345
1274 1346 1347
1274 1275 1347
1278 1348
1278 1349
1278 1284 1350
1279 1351
1280 1317
1281 1352 1353 1354
1283 1355
1285 1314 1356 1357
1286 1358
1287
1288 1359
1288 1360 1361
1289 1362 1363
1289 1364
1290 1365 1366
1290 1367
1291 1368
1292 1365 1369
1293 1370
1293 1369 1371
1294 1372 1373
1295 1374 1375 1376
1295 1377 1378
1295 1379
1296
1296
1297 1380
1298 1381
1299 1382
1300 1383 1384
1301 1385
1302 1386
1303 1304
1305 1387
1306 1388
1307 1389
1308 1390
1308 1309 1391
1310 1392
1311 1393 1394
1312 1395
1313 1379
1315 1357
1315 1396
1315 1397
1316 1398
1317 1399
1317 1352
1318 1400 1401
1320 1402
1321 1403 1404
1321 1405
1322 1367 1406
1322 1407
1323 1408
1324 1327
1324 1409
1325 1362
1326 1410
1327 1329
1328 1411
1329 1412
1330 1413
1330 1414 1415
1331 1392
1331 1416
1331 1417
1332 1418 1419
1332 1420
1333 1351
1336 1421
1337 1384
1338 1422 1423
1339 1424
1339 1381
1340 1425
1341 1426
1343 1427
1344 1428
1345 1429
1346 1430
1347 1431
1348 1374 1432
1349 1433 1434
1349 1434
1350 1435
1353 1436
1354 1437
1355
1356 1438
1358 1439
1358
1359 1403 1440
1360 1402 1441
1360 1442 1443
1361 1443
1362 1444 1445
1363 1446
1364 1447
1366 1448
1368 1449
1370 1412 1450
1371 1411 1451
1372 1452
1373
1373 1453
1375 1454 1455
1376 1456
1377 1457
1377 1458
1378
1380 1459
1382 1460
1382 1461
1383 1462
1385 1463
1386 1464
1387 1465
1388 1466
1389 1467
1390 1431
1391 1430
1392 1468
1393 1469 1470 1471
1393 1394 1470 1472
1395 1473 1474
1396 1475
1397 1476
1399 1477
1400 1478 1479
1402 1480
1403 1481
1404 1445
1404 1405
1406 1482 1483
1406 1442 1446
1407 1445
1408
1409 1484
1410 1485
1411 1486 1487 1488
1412 1489 1490
1413 1491
1415
1416 1492
1416 1491
1417 1493
1418 1494 1495
1419
1421 1496
1422 1497
1423 1498 1499
1424 1500
1425 1501
1426 1502
1427 1503
1428 1504
1429 1505
1432 1506
1433 1507
1433 1434 1508
1433 1509
1434 1510 1511
1435 1478
1435 1510
1436 1512
1437 1513
1438 1514
1439 1473 1515
1439 1516 1517
1440 1518 1519
1441 1520
1444 1521
1444 1522 1523
1448 1524
1449 1525
1450
1450 1526
1450 1527
1451 1528
1451 1529
1452 1455 1530
1454 1531
1456 1532
1457
1457
1459 1533
1460 1534
1461 1535
1461 1536
1462 1537
1463 1538
1464 1539
1465 1540
1466 1541
1467 1542
1468 1543
1469 1544 1545
1470 1546
1471 1547
1472 1474
1472 1548 1549
1475 1550
1476 1551 1552
1477 1517
1478 1553
1479 1554
1479 1514
1480 1555
1480 1556
1481 1557 1558
1482 1559 1560
1483 1561 1562
1483
1484 1563 1564
1485
1487 1565
1488 1566
1489
1490 1567
1491 1568 1569
1492 1570
1493 1543 1571
1496 1572
1497 1535 1573
1498 1534 1574 1575
1499 1576
1500 1577
1501 1578
1502 1579
1503 1580
1504 1581
1505 1582
1506 1532
1507 1583
1507 1584
1508 1585
1509 1586 1587
1511 1588 1589
1511 1590 1591
1512 1592
1513 1593
1513 1594
1515 1588 1595
1516 1596 1597 1598
1518 1599 1600
1519 1601
1520 1602
1520
1521
1521
1522 1603
1522 1604 1605
1524 1606 1607 1608
1524 1609
1526 1610
1527 1611
1529 1606
1530 1612
1530 1611
1531 1613
1532 1614
1533 1615
1534 1616
1535 1617 1618 1619
1535 1620
1536 1621
1537 1622
1538 1623
1539 1624
1540 1625 1626
1541 1627
1542 1628
1544 1629
1545 1630
1546 1631 1632
1547 1633 1634
1547 1635 1636
1548 1553 1637 1638
1548 1639 1640
1549 1641
1549 1631
1550 1642
1551 1643
1552 1644
1553
1554 1645
1554 1646
1554 1647
1555 1648
1555 1649
1556 1650 1651
1557 1652
1561 1652 1653
1562
1562 1654
1563 1567 1655 1656
1563 1657 1658
1563 1659
1564
1565 1660
1566 1569
1568 1661
1570 1662
1571 1663
1572 1664
1573 1665
1574 1666
1574 1667 1668
1574 1669
1575 1670
1576 1670 1671
1577 1672
1578 1673
1579 1674 1675
1580 1676
1580 1677
1581 1678
1582 1679 1680
1583 1681
1584 1682 1683
1585 1591 1684 1685
1585 1686
1586 1635 1687 1688
1586 1689
1587 1633
1587 1690
1588 1691 1692
1588 1693 1694
1589 1684 1693 1695
1589 1696
1590
1592 1673
1593 1697 1698 1699
1594 1700 1701
1596 1702
1597 1703
1598 1704 1705
1599 1706
1600 1707 1708
1601
1601 1709 1710
1602 1603 1659
1603 1711
1605 1712
1606 1713 1714
1606 1715 1716
1607 1717 1718
1607 1719
1608 1652 1720
1610 1721
1612 1722 1723
1613 1724
1614 1682
1615 1725
1616 1726
1617 1727 1728
1618 1729
1618 1728
1619 1730
1620 1621
1621 1731 1732
1622 1733
1623 1642
1624 1734
1624 1735
1625 1736
1626 1737 1738
1627 1739
1628 1740
1628 1741
1629 1742 1743
1630 1663 1744
1630
1631 1639
1631
1632
1633 1745
1633 1746
1634 1747
1636 1748 1749
1637 1694
1637 1702 1750
1638 1639 1751 1752
1638 1691 1753
1639 1754
1640
1643 1755
1643 1704 1756
1643 1757
1644 1758
1644 1759
1645 1692 1760
1646 1761
1647 1698 1762
1647
1648 1763 1764
1649 1765 1766
1649 1767
1651 1768 1769
1651
1653
1654 1770
1655 1771
1655 1717 1772
1656 1773
1656 1774
1657 1714 1775
1657 1776
1658 1777
1659 1778
1660 1779
1661 1780
1661 1781
1662
1664 1782
1665 1783
1666 1732
1666 1668
1667 1784
1669 1785
1671 1786
1671 1727
1672 1787
1674 1788
1675 1789
1676 1790 1791
1677 1792
1677 1793
1678 1794
1679 1795
1680 1796
1681 1743 1797
1681 1742 1798
1682 1799
1687 1800
1688 1801
1689 1802 1803
1690 1804 1805
1690 1805
1692 1806
1693 1807
1693 1808
1694 1809
1695 1810
1697 1811 1812
1698
1699 1813
1700 1814
1701 1815
1702 1816
1703 1817 1818
1704 1819
1706 1820
1706 1821
1707 1822 1823
1707 1824 1825
1708 1826 1827
1709 1828
1709
1712 1829
1713 1830 1831
1714 1832
1715 1833 1834
1716 1835
1717 1836 1837
1718 1838
1719 1839
1720
1721 1840
1722 1841
1723 1842
1725 1843
1726 1844
1729 1845
1730 1846
1731 1847
1733 1848
1734 1790
1735 1849
1736 1788
1736 1850
1737 1851 1852
1738 1853
1739 1854
1740 1855
1741 1856
1742 1857 1858
1743 1859
1744 1860
1745 1861
1746 1862
1747 1863
1747 1864
1748
1748 1749
1750 1865
1751 1866 1867 1868
1752 1867
1753 1868 1869
1754 1870 1871
1755 1872
1755 1873
1757 1874
1758 1875
1759
1760 1876
1761 1877
1761 1878
1762 1879
1763 1880
1764 1881
1765 1882
1765 1883
1766
1766 1884 1885
1767 1886
1767
1768 1887 1888
1770
1771 1889
1771 1890
1772 1891
1773 1892
1773 1893 1894
1774 1895
1775 1896
1775 1897 1898
1776 1899 1900
1777 1900 1901
1779 1841 1892 1902
1780 1840
1781 1860 1903
1782 1904
1783 1905
1784 1906
1785 1907
1786 1908
1787 1909
1789 1910 1911
1791 1912
1792 1912 1913 1914
1792 1915
1793 1916
1794 1917
1795 1918
1796 1919
1797 1920
1797 1921 1922
1798 1923
1799 1842 1921
1800 1924 1925
1801 1926 1927
1802 1928
1803 1929
1806 1930
1807 1931
1807 1808 1932
1807 1809
1809 1933
1810 1934 1935
1810 1936
1811 1937
1812
1813 1938
1814 1939
1816
1817 1940
1818 1941 1942
1819 1943 1944
1820 1945
1821 1946
1822 1947
1823 1885 1948
1825
1825 1883 1949
1826 1950
1828
1828
1830 1951
1831 1895 1952
1832
1833 1840
1834 1953
1834 1954
1835 1890
1836 1955 1956
1837 1957
1837 1958
1838 1955
1838 1839
1839 1959
1840 1960
1842 1961
1843 1962
1844 1963
1845 1964
1846 1965
1847 1966
1848 1967
1849 1968
1849 1969
1850 1851
1851 1970
1851 1971
1852 1972
1853 1973
1854 1974
1855 1975
1856 1976 1977
1857 1957 1978
1858 1860 1979
1858 1980
1859 1981
1861 1982
1861 1983 1984
1862 1985 1986 1987
1862 1988
1863 1989
1864 1990
1865 1991
1866 1992
1867 1935 1993
1869 1994
1870 1995
1870 1932
1871
1872 1996
1874 1997 1998
1875 1999
1877 2000
1878
1878
1879
1879
1880
1881
1882
1883
1885
1886
1889 1953
1890 1954
1893 1951
1894 1952
1896 1899
1896
1897 1920
1898
1901
1902
1903
1904
1905
1906
1907
1908
1909
1910
1911
1913
1914
1915
1916
1917
1918
1919
1919
1920
1921
1922
1923
1924
1925
1925
1926
1926
1926
1927
1928
1929
1930
1931
1932
1933
1934
1937
1938
1938
1939
1940
